sat
(:added-eqs                       16033
 :arith-eq-adapter                782
 :arith-bound-propagations-lp     1182
 :arith-branch                    9
 :arith-conflicts                 2270
 :arith-cube-calls                4
 :arith-diseq                     9379
 :arith-fixed-eqs                 2794
 :arith-gcd-calls                 171
 :arith-gomory-cuts               2
 :arith-grobner-calls             464
 :arith-grobner-conflicts         169
 :arith-hnf-calls                 1
 :arith-horner-calls              116
 :arith-horner-conflicts          7
 :arith-horner-cross-nested-forms 16058
 :arith-lower                     11611
 :arith-make-feasible             8980
 :arith-max-columns               656
 :arith-max-rows                  320
 :arith-nla-add-bounds            88
 :arith-nla-lemmas                1151
 :arith-nla-propagate-bounds      817
 :arith-nla-propagate-eq          10946
 :arith-nra-calls                 106
 :arith-offset-eqs                1909
 :arith-patches                   171
 :arith-patches-success           154
 :arith-upper                     12997
 :binary-propagations             40004
 :card2bv-rewrites                2
 :cnf-encoding-aux-vars           7
 :conflicts                       489
 :decisions                       79952
 :del-clause                      2553
 :elim-unconstrained              96
 :final-checks                    842
 :max-memory                      29.02
 :memory                          18.95
 :minimized-lits                  2387
 :mk-bool-var                     7064
 :mk-clause                       4336
 :mk-clause-binary                7490
 :nlsat-conflicts                 4
 :nlsat-decisions                 51
 :nlsat-propagations              2041
 :nlsat-stages                    643
 :num-allocs                      2400425747
 :num-checks                      1
 :propagations                    65279
 :restarts                        4
 :rlimit-count                    5091613
 :solve-eqs-elim-vars             50
 :solve-eqs-steps                 607
 :time                            2.03
 :total-time                      2.05)
